Minimize
 obj: 0 X_0_1
Subject To
 out_0:
  + 1 X_0_1 + 1 X_0_2 + 1 X_0_3 + 1 X_0_4 + 1 X_0_5 + 1 X_0_6 + 1 X_0_7 + 1 X_0_8
  + 1 X_0_9 + 1 X_0_10 + 1 X_0_11 + 1 X_0_12 + 1 X_0_13 + 1 X_0_14
  = 1
 in_0:
  + 1 X_1_0 + 1 X_2_0 + 1 X_3_0 + 1 X_4_0 + 1 X_5_0 + 1 X_6_0 + 1 X_7_0 + 1 X_8_0
  + 1 X_9_0 + 1 X_10_0 + 1 X_11_0 + 1 X_12_0 + 1 X_13_0 + 1 X_14_0
  = 1
 out_1:
  + 1 X_1_0 + 1 X_1_2 + 1 X_1_3 + 1 X_1_4 + 1 X_1_5 + 1 X_1_6 + 1 X_1_7 + 1 X_1_8
  + 1 X_1_9 + 1 X_1_10 + 1 X_1_11 + 1 X_1_12 + 1 X_1_13 + 1 X_1_14
  = 1
 in_1:
  + 1 X_0_1 + 1 X_2_1 + 1 X_3_1 + 1 X_4_1 + 1 X_5_1 + 1 X_6_1 + 1 X_7_1 + 1 X_8_1
  + 1 X_9_1 + 1 X_10_1 + 1 X_11_1 + 1 X_12_1 + 1 X_13_1 + 1 X_14_1
  = 1
 out_2:
  + 1 X_2_0 + 1 X_2_1 + 1 X_2_3 + 1 X_2_4 + 1 X_2_5 + 1 X_2_6 + 1 X_2_7 + 1 X_2_8
  + 1 X_2_9 + 1 X_2_10 + 1 X_2_11 + 1 X_2_12 + 1 X_2_13 + 1 X_2_14
  = 1
 in_2:
  + 1 X_0_2 + 1 X_1_2 + 1 X_3_2 + 1 X_4_2 + 1 X_5_2 + 1 X_6_2 + 1 X_7_2 + 1 X_8_2
  + 1 X_9_2 + 1 X_10_2 + 1 X_11_2 + 1 X_12_2 + 1 X_13_2 + 1 X_14_2
  = 1
 out_3:
  + 1 X_3_0 + 1 X_3_1 + 1 X_3_2 + 1 X_3_4 + 1 X_3_5 + 1 X_3_6 + 1 X_3_7 + 1 X_3_8
  + 1 X_3_9 + 1 X_3_10 + 1 X_3_11 + 1 X_3_12 + 1 X_3_13 + 1 X_3_14
  = 1
 in_3:
  + 1 X_0_3 + 1 X_1_3 + 1 X_2_3 + 1 X_4_3 + 1 X_5_3 + 1 X_6_3 + 1 X_7_3 + 1 X_8_3
  + 1 X_9_3 + 1 X_10_3 + 1 X_11_3 + 1 X_12_3 + 1 X_13_3 + 1 X_14_3
  = 1
 out_4:
  + 1 X_4_0 + 1 X_4_1 + 1 X_4_2 + 1 X_4_3 + 1 X_4_5 + 1 X_4_6 + 1 X_4_7 + 1 X_4_8
  + 1 X_4_9 + 1 X_4_10 + 1 X_4_11 + 1 X_4_12 + 1 X_4_13 + 1 X_4_14
  = 1
 in_4:
  + 1 X_0_4 + 1 X_1_4 + 1 X_2_4 + 1 X_3_4 + 1 X_5_4 + 1 X_6_4 + 1 X_7_4 + 1 X_8_4
  + 1 X_9_4 + 1 X_10_4 + 1 X_11_4 + 1 X_12_4 + 1 X_13_4 + 1 X_14_4
  = 1
 out_5:
  + 1 X_5_0 + 1 X_5_1 + 1 X_5_2 + 1 X_5_3 + 1 X_5_4 + 1 X_5_6 + 1 X_5_7 + 1 X_5_8
  + 1 X_5_9 + 1 X_5_10 + 1 X_5_11 + 1 X_5_12 + 1 X_5_13 + 1 X_5_14
  = 1
 in_5:
  + 1 X_0_5 + 1 X_1_5 + 1 X_2_5 + 1 X_3_5 + 1 X_4_5 + 1 X_6_5 + 1 X_7_5 + 1 X_8_5
  + 1 X_9_5 + 1 X_10_5 + 1 X_11_5 + 1 X_12_5 + 1 X_13_5 + 1 X_14_5
  = 1
 out_6:
  + 1 X_6_0 + 1 X_6_1 + 1 X_6_2 + 1 X_6_3 + 1 X_6_4 + 1 X_6_5 + 1 X_6_7 + 1 X_6_8
  + 1 X_6_9 + 1 X_6_10 + 1 X_6_11 + 1 X_6_12 + 1 X_6_13 + 1 X_6_14
  = 1
 in_6:
  + 1 X_0_6 + 1 X_1_6 + 1 X_2_6 + 1 X_3_6 + 1 X_4_6 + 1 X_5_6 + 1 X_7_6 + 1 X_8_6
  + 1 X_9_6 + 1 X_10_6 + 1 X_11_6 + 1 X_12_6 + 1 X_13_6 + 1 X_14_6
  = 1
 out_7:
  + 1 X_7_0 + 1 X_7_1 + 1 X_7_2 + 1 X_7_3 + 1 X_7_4 + 1 X_7_5 + 1 X_7_6 + 1 X_7_8
  + 1 X_7_9 + 1 X_7_10 + 1 X_7_11 + 1 X_7_12 + 1 X_7_13 + 1 X_7_14
  = 1
 in_7:
  + 1 X_0_7 + 1 X_1_7 + 1 X_2_7 + 1 X_3_7 + 1 X_4_7 + 1 X_5_7 + 1 X_6_7 + 1 X_8_7
  + 1 X_9_7 + 1 X_10_7 + 1 X_11_7 + 1 X_12_7 + 1 X_13_7 + 1 X_14_7
  = 1
 out_8:
  + 1 X_8_0 + 1 X_8_1 + 1 X_8_2 + 1 X_8_3 + 1 X_8_4 + 1 X_8_5 + 1 X_8_6 + 1 X_8_7
  + 1 X_8_9 + 1 X_8_10 + 1 X_8_11 + 1 X_8_12 + 1 X_8_13 + 1 X_8_14
  = 1
 in_8:
  + 1 X_0_8 + 1 X_1_8 + 1 X_2_8 + 1 X_3_8 + 1 X_4_8 + 1 X_5_8 + 1 X_6_8 + 1 X_7_8
  + 1 X_9_8 + 1 X_10_8 + 1 X_11_8 + 1 X_12_8 + 1 X_13_8 + 1 X_14_8
  = 1
 out_9:
  + 1 X_9_0 + 1 X_9_1 + 1 X_9_2 + 1 X_9_3 + 1 X_9_4 + 1 X_9_5 + 1 X_9_6 + 1 X_9_7
  + 1 X_9_8 + 1 X_9_10 + 1 X_9_11 + 1 X_9_12 + 1 X_9_13 + 1 X_9_14
  = 1
 in_9:
  + 1 X_0_9 + 1 X_1_9 + 1 X_2_9 + 1 X_3_9 + 1 X_4_9 + 1 X_5_9 + 1 X_6_9 + 1 X_7_9
  + 1 X_8_9 + 1 X_10_9 + 1 X_11_9 + 1 X_12_9 + 1 X_13_9 + 1 X_14_9
  = 1
 out_10:
  + 1 X_10_0 + 1 X_10_1 + 1 X_10_2 + 1 X_10_3 + 1 X_10_4 + 1 X_10_5 + 1 X_10_6 + 1 X_10_7
  + 1 X_10_8 + 1 X_10_9 + 1 X_10_11 + 1 X_10_12 + 1 X_10_13 + 1 X_10_14
  = 1
 in_10:
  + 1 X_0_10 + 1 X_1_10 + 1 X_2_10 + 1 X_3_10 + 1 X_4_10 + 1 X_5_10 + 1 X_6_10 + 1 X_7_10
  + 1 X_8_10 + 1 X_9_10 + 1 X_11_10 + 1 X_12_10 + 1 X_13_10 + 1 X_14_10
  = 1
 out_11:
  + 1 X_11_0 + 1 X_11_1 + 1 X_11_2 + 1 X_11_3 + 1 X_11_4 + 1 X_11_5 + 1 X_11_6 + 1 X_11_7
  + 1 X_11_8 + 1 X_11_9 + 1 X_11_10 + 1 X_11_12 + 1 X_11_13 + 1 X_11_14
  = 1
 in_11:
  + 1 X_0_11 + 1 X_1_11 + 1 X_2_11 + 1 X_3_11 + 1 X_4_11 + 1 X_5_11 + 1 X_6_11 + 1 X_7_11
  + 1 X_8_11 + 1 X_9_11 + 1 X_10_11 + 1 X_12_11 + 1 X_13_11 + 1 X_14_11
  = 1
 out_12:
  + 1 X_12_0 + 1 X_12_1 + 1 X_12_2 + 1 X_12_3 + 1 X_12_4 + 1 X_12_5 + 1 X_12_6 + 1 X_12_7
  + 1 X_12_8 + 1 X_12_9 + 1 X_12_10 + 1 X_12_11 + 1 X_12_13 + 1 X_12_14
  = 1
 in_12:
  + 1 X_0_12 + 1 X_1_12 + 1 X_2_12 + 1 X_3_12 + 1 X_4_12 + 1 X_5_12 + 1 X_6_12 + 1 X_7_12
  + 1 X_8_12 + 1 X_9_12 + 1 X_10_12 + 1 X_11_12 + 1 X_13_12 + 1 X_14_12
  = 1
 out_13:
  + 1 X_13_0 + 1 X_13_1 + 1 X_13_2 + 1 X_13_3 + 1 X_13_4 + 1 X_13_5 + 1 X_13_6 + 1 X_13_7
  + 1 X_13_8 + 1 X_13_9 + 1 X_13_10 + 1 X_13_11 + 1 X_13_12 + 1 X_13_14
  = 1
 in_13:
  + 1 X_0_13 + 1 X_1_13 + 1 X_2_13 + 1 X_3_13 + 1 X_4_13 + 1 X_5_13 + 1 X_6_13 + 1 X_7_13
  + 1 X_8_13 + 1 X_9_13 + 1 X_10_13 + 1 X_11_13 + 1 X_12_13 + 1 X_14_13
  = 1
 out_14:
  + 1 X_14_0 + 1 X_14_1 + 1 X_14_2 + 1 X_14_3 + 1 X_14_4 + 1 X_14_5 + 1 X_14_6 + 1 X_14_7
  + 1 X_14_8 + 1 X_14_9 + 1 X_14_10 + 1 X_14_11 + 1 X_14_12 + 1 X_14_13
  = 1
 in_14:
  + 1 X_0_14 + 1 X_1_14 + 1 X_2_14 + 1 X_3_14 + 1 X_4_14 + 1 X_5_14 + 1 X_6_14 + 1 X_7_14
  + 1 X_8_14 + 1 X_9_14 + 1 X_10_14 + 1 X_11_14 + 1 X_12_14 + 1 X_13_14
  = 1
 mtz_1_2:
  + 1 U1 - 1 U2 + 14 X_1_2
  <= 13
 mtz_1_3:
  + 1 U1 - 1 U3 + 14 X_1_3
  <= 13
 mtz_1_4:
  + 1 U1 - 1 U4 + 14 X_1_4
  <= 13
 mtz_1_5:
  + 1 U1 - 1 U5 + 14 X_1_5
  <= 13
 mtz_1_6:
  + 1 U1 - 1 U6 + 14 X_1_6
  <= 13
 mtz_1_7:
  + 1 U1 - 1 U7 + 14 X_1_7
  <= 13
 mtz_1_8:
  + 1 U1 - 1 U8 + 14 X_1_8
  <= 13
 mtz_1_9:
  + 1 U1 - 1 U9 + 14 X_1_9
  <= 13
 mtz_1_10:
  + 1 U1 - 1 U10 + 14 X_1_10
  <= 13
 mtz_1_11:
  + 1 U1 - 1 U11 + 14 X_1_11
  <= 13
 mtz_1_12:
  + 1 U1 - 1 U12 + 14 X_1_12
  <= 13
 mtz_1_13:
  + 1 U1 - 1 U13 + 14 X_1_13
  <= 13
 mtz_1_14:
  + 1 U1 - 1 U14 + 14 X_1_14
  <= 13
 mtz_2_1:
  + 1 U2 - 1 U1 + 14 X_2_1
  <= 13
 mtz_2_3:
  + 1 U2 - 1 U3 + 14 X_2_3
  <= 13
 mtz_2_4:
  + 1 U2 - 1 U4 + 14 X_2_4
  <= 13
 mtz_2_5:
  + 1 U2 - 1 U5 + 14 X_2_5
  <= 13
 mtz_2_6:
  + 1 U2 - 1 U6 + 14 X_2_6
  <= 13
 mtz_2_7:
  + 1 U2 - 1 U7 + 14 X_2_7
  <= 13
 mtz_2_8:
  + 1 U2 - 1 U8 + 14 X_2_8
  <= 13
 mtz_2_9:
  + 1 U2 - 1 U9 + 14 X_2_9
  <= 13
 mtz_2_10:
  + 1 U2 - 1 U10 + 14 X_2_10
  <= 13
 mtz_2_11:
  + 1 U2 - 1 U11 + 14 X_2_11
  <= 13
 mtz_2_12:
  + 1 U2 - 1 U12 + 14 X_2_12
  <= 13
 mtz_2_13:
  + 1 U2 - 1 U13 + 14 X_2_13
  <= 13
 mtz_2_14:
  + 1 U2 - 1 U14 + 14 X_2_14
  <= 13
 mtz_3_1:
  + 1 U3 - 1 U1 + 14 X_3_1
  <= 13
 mtz_3_2:
  + 1 U3 - 1 U2 + 14 X_3_2
  <= 13
 mtz_3_4:
  + 1 U3 - 1 U4 + 14 X_3_4
  <= 13
 mtz_3_5:
  + 1 U3 - 1 U5 + 14 X_3_5
  <= 13
 mtz_3_6:
  + 1 U3 - 1 U6 + 14 X_3_6
  <= 13
 mtz_3_7:
  + 1 U3 - 1 U7 + 14 X_3_7
  <= 13
 mtz_3_8:
  + 1 U3 - 1 U8 + 14 X_3_8
  <= 13
 mtz_3_9:
  + 1 U3 - 1 U9 + 14 X_3_9
  <= 13
 mtz_3_10:
  + 1 U3 - 1 U10 + 14 X_3_10
  <= 13
 mtz_3_11:
  + 1 U3 - 1 U11 + 14 X_3_11
  <= 13
 mtz_3_12:
  + 1 U3 - 1 U12 + 14 X_3_12
  <= 13
 mtz_3_13:
  + 1 U3 - 1 U13 + 14 X_3_13
  <= 13
 mtz_3_14:
  + 1 U3 - 1 U14 + 14 X_3_14
  <= 13
 mtz_4_1:
  + 1 U4 - 1 U1 + 14 X_4_1
  <= 13
 mtz_4_2:
  + 1 U4 - 1 U2 + 14 X_4_2
  <= 13
 mtz_4_3:
  + 1 U4 - 1 U3 + 14 X_4_3
  <= 13
 mtz_4_5:
  + 1 U4 - 1 U5 + 14 X_4_5
  <= 13
 mtz_4_6:
  + 1 U4 - 1 U6 + 14 X_4_6
  <= 13
 mtz_4_7:
  + 1 U4 - 1 U7 + 14 X_4_7
  <= 13
 mtz_4_8:
  + 1 U4 - 1 U8 + 14 X_4_8
  <= 13
 mtz_4_9:
  + 1 U4 - 1 U9 + 14 X_4_9
  <= 13
 mtz_4_10:
  + 1 U4 - 1 U10 + 14 X_4_10
  <= 13
 mtz_4_11:
  + 1 U4 - 1 U11 + 14 X_4_11
  <= 13
 mtz_4_12:
  + 1 U4 - 1 U12 + 14 X_4_12
  <= 13
 mtz_4_13:
  + 1 U4 - 1 U13 + 14 X_4_13
  <= 13
 mtz_4_14:
  + 1 U4 - 1 U14 + 14 X_4_14
  <= 13
 mtz_5_1:
  + 1 U5 - 1 U1 + 14 X_5_1
  <= 13
 mtz_5_2:
  + 1 U5 - 1 U2 + 14 X_5_2
  <= 13
 mtz_5_3:
  + 1 U5 - 1 U3 + 14 X_5_3
  <= 13
 mtz_5_4:
  + 1 U5 - 1 U4 + 14 X_5_4
  <= 13
 mtz_5_6:
  + 1 U5 - 1 U6 + 14 X_5_6
  <= 13
 mtz_5_7:
  + 1 U5 - 1 U7 + 14 X_5_7
  <= 13
 mtz_5_8:
  + 1 U5 - 1 U8 + 14 X_5_8
  <= 13
 mtz_5_9:
  + 1 U5 - 1 U9 + 14 X_5_9
  <= 13
 mtz_5_10:
  + 1 U5 - 1 U10 + 14 X_5_10
  <= 13
 mtz_5_11:
  + 1 U5 - 1 U11 + 14 X_5_11
  <= 13
 mtz_5_12:
  + 1 U5 - 1 U12 + 14 X_5_12
  <= 13
 mtz_5_13:
  + 1 U5 - 1 U13 + 14 X_5_13
  <= 13
 mtz_5_14:
  + 1 U5 - 1 U14 + 14 X_5_14
  <= 13
 mtz_6_1:
  + 1 U6 - 1 U1 + 14 X_6_1
  <= 13
 mtz_6_2:
  + 1 U6 - 1 U2 + 14 X_6_2
  <= 13
 mtz_6_3:
  + 1 U6 - 1 U3 + 14 X_6_3
  <= 13
 mtz_6_4:
  + 1 U6 - 1 U4 + 14 X_6_4
  <= 13
 mtz_6_5:
  + 1 U6 - 1 U5 + 14 X_6_5
  <= 13
 mtz_6_7:
  + 1 U6 - 1 U7 + 14 X_6_7
  <= 13
 mtz_6_8:
  + 1 U6 - 1 U8 + 14 X_6_8
  <= 13
 mtz_6_9:
  + 1 U6 - 1 U9 + 14 X_6_9
  <= 13
 mtz_6_10:
  + 1 U6 - 1 U10 + 14 X_6_10
  <= 13
 mtz_6_11:
  + 1 U6 - 1 U11 + 14 X_6_11
  <= 13
 mtz_6_12:
  + 1 U6 - 1 U12 + 14 X_6_12
  <= 13
 mtz_6_13:
  + 1 U6 - 1 U13 + 14 X_6_13
  <= 13
 mtz_6_14:
  + 1 U6 - 1 U14 + 14 X_6_14
  <= 13
 mtz_7_1:
  + 1 U7 - 1 U1 + 14 X_7_1
  <= 13
 mtz_7_2:
  + 1 U7 - 1 U2 + 14 X_7_2
  <= 13
 mtz_7_3:
  + 1 U7 - 1 U3 + 14 X_7_3
  <= 13
 mtz_7_4:
  + 1 U7 - 1 U4 + 14 X_7_4
  <= 13
 mtz_7_5:
  + 1 U7 - 1 U5 + 14 X_7_5
  <= 13
 mtz_7_6:
  + 1 U7 - 1 U6 + 14 X_7_6
  <= 13
 mtz_7_8:
  + 1 U7 - 1 U8 + 14 X_7_8
  <= 13
 mtz_7_9:
  + 1 U7 - 1 U9 + 14 X_7_9
  <= 13
 mtz_7_10:
  + 1 U7 - 1 U10 + 14 X_7_10
  <= 13
 mtz_7_11:
  + 1 U7 - 1 U11 + 14 X_7_11
  <= 13
 mtz_7_12:
  + 1 U7 - 1 U12 + 14 X_7_12
  <= 13
 mtz_7_13:
  + 1 U7 - 1 U13 + 14 X_7_13
  <= 13
 mtz_7_14:
  + 1 U7 - 1 U14 + 14 X_7_14
  <= 13
 mtz_8_1:
  + 1 U8 - 1 U1 + 14 X_8_1
  <= 13
 mtz_8_2:
  + 1 U8 - 1 U2 + 14 X_8_2
  <= 13
 mtz_8_3:
  + 1 U8 - 1 U3 + 14 X_8_3
  <= 13
 mtz_8_4:
  + 1 U8 - 1 U4 + 14 X_8_4
  <= 13
 mtz_8_5:
  + 1 U8 - 1 U5 + 14 X_8_5
  <= 13
 mtz_8_6:
  + 1 U8 - 1 U6 + 14 X_8_6
  <= 13
 mtz_8_7:
  + 1 U8 - 1 U7 + 14 X_8_7
  <= 13
 mtz_8_9:
  + 1 U8 - 1 U9 + 14 X_8_9
  <= 13
 mtz_8_10:
  + 1 U8 - 1 U10 + 14 X_8_10
  <= 13
 mtz_8_11:
  + 1 U8 - 1 U11 + 14 X_8_11
  <= 13
 mtz_8_12:
  + 1 U8 - 1 U12 + 14 X_8_12
  <= 13
 mtz_8_13:
  + 1 U8 - 1 U13 + 14 X_8_13
  <= 13
 mtz_8_14:
  + 1 U8 - 1 U14 + 14 X_8_14
  <= 13
 mtz_9_1:
  + 1 U9 - 1 U1 + 14 X_9_1
  <= 13
 mtz_9_2:
  + 1 U9 - 1 U2 + 14 X_9_2
  <= 13
 mtz_9_3:
  + 1 U9 - 1 U3 + 14 X_9_3
  <= 13
 mtz_9_4:
  + 1 U9 - 1 U4 + 14 X_9_4
  <= 13
 mtz_9_5:
  + 1 U9 - 1 U5 + 14 X_9_5
  <= 13
 mtz_9_6:
  + 1 U9 - 1 U6 + 14 X_9_6
  <= 13
 mtz_9_7:
  + 1 U9 - 1 U7 + 14 X_9_7
  <= 13
 mtz_9_8:
  + 1 U9 - 1 U8 + 14 X_9_8
  <= 13
 mtz_9_10:
  + 1 U9 - 1 U10 + 14 X_9_10
  <= 13
 mtz_9_11:
  + 1 U9 - 1 U11 + 14 X_9_11
  <= 13
 mtz_9_12:
  + 1 U9 - 1 U12 + 14 X_9_12
  <= 13
 mtz_9_13:
  + 1 U9 - 1 U13 + 14 X_9_13
  <= 13
 mtz_9_14:
  + 1 U9 - 1 U14 + 14 X_9_14
  <= 13
 mtz_10_1:
  + 1 U10 - 1 U1 + 14 X_10_1
  <= 13
 mtz_10_2:
  + 1 U10 - 1 U2 + 14 X_10_2
  <= 13
 mtz_10_3:
  + 1 U10 - 1 U3 + 14 X_10_3
  <= 13
 mtz_10_4:
  + 1 U10 - 1 U4 + 14 X_10_4
  <= 13
 mtz_10_5:
  + 1 U10 - 1 U5 + 14 X_10_5
  <= 13
 mtz_10_6:
  + 1 U10 - 1 U6 + 14 X_10_6
  <= 13
 mtz_10_7:
  + 1 U10 - 1 U7 + 14 X_10_7
  <= 13
 mtz_10_8:
  + 1 U10 - 1 U8 + 14 X_10_8
  <= 13
 mtz_10_9:
  + 1 U10 - 1 U9 + 14 X_10_9
  <= 13
 mtz_10_11:
  + 1 U10 - 1 U11 + 14 X_10_11
  <= 13
 mtz_10_12:
  + 1 U10 - 1 U12 + 14 X_10_12
  <= 13
 mtz_10_13:
  + 1 U10 - 1 U13 + 14 X_10_13
  <= 13
 mtz_10_14:
  + 1 U10 - 1 U14 + 14 X_10_14
  <= 13
 mtz_11_1:
  + 1 U11 - 1 U1 + 14 X_11_1
  <= 13
 mtz_11_2:
  + 1 U11 - 1 U2 + 14 X_11_2
  <= 13
 mtz_11_3:
  + 1 U11 - 1 U3 + 14 X_11_3
  <= 13
 mtz_11_4:
  + 1 U11 - 1 U4 + 14 X_11_4
  <= 13
 mtz_11_5:
  + 1 U11 - 1 U5 + 14 X_11_5
  <= 13
 mtz_11_6:
  + 1 U11 - 1 U6 + 14 X_11_6
  <= 13
 mtz_11_7:
  + 1 U11 - 1 U7 + 14 X_11_7
  <= 13
 mtz_11_8:
  + 1 U11 - 1 U8 + 14 X_11_8
  <= 13
 mtz_11_9:
  + 1 U11 - 1 U9 + 14 X_11_9
  <= 13
 mtz_11_10:
  + 1 U11 - 1 U10 + 14 X_11_10
  <= 13
 mtz_11_12:
  + 1 U11 - 1 U12 + 14 X_11_12
  <= 13
 mtz_11_13:
  + 1 U11 - 1 U13 + 14 X_11_13
  <= 13
 mtz_11_14:
  + 1 U11 - 1 U14 + 14 X_11_14
  <= 13
 mtz_12_1:
  + 1 U12 - 1 U1 + 14 X_12_1
  <= 13
 mtz_12_2:
  + 1 U12 - 1 U2 + 14 X_12_2
  <= 13
 mtz_12_3:
  + 1 U12 - 1 U3 + 14 X_12_3
  <= 13
 mtz_12_4:
  + 1 U12 - 1 U4 + 14 X_12_4
  <= 13
 mtz_12_5:
  + 1 U12 - 1 U5 + 14 X_12_5
  <= 13
 mtz_12_6:
  + 1 U12 - 1 U6 + 14 X_12_6
  <= 13
 mtz_12_7:
  + 1 U12 - 1 U7 + 14 X_12_7
  <= 13
 mtz_12_8:
  + 1 U12 - 1 U8 + 14 X_12_8
  <= 13
 mtz_12_9:
  + 1 U12 - 1 U9 + 14 X_12_9
  <= 13
 mtz_12_10:
  + 1 U12 - 1 U10 + 14 X_12_10
  <= 13
 mtz_12_11:
  + 1 U12 - 1 U11 + 14 X_12_11
  <= 13
 mtz_12_13:
  + 1 U12 - 1 U13 + 14 X_12_13
  <= 13
 mtz_12_14:
  + 1 U12 - 1 U14 + 14 X_12_14
  <= 13
 mtz_13_1:
  + 1 U13 - 1 U1 + 14 X_13_1
  <= 13
 mtz_13_2:
  + 1 U13 - 1 U2 + 14 X_13_2
  <= 13
 mtz_13_3:
  + 1 U13 - 1 U3 + 14 X_13_3
  <= 13
 mtz_13_4:
  + 1 U13 - 1 U4 + 14 X_13_4
  <= 13
 mtz_13_5:
  + 1 U13 - 1 U5 + 14 X_13_5
  <= 13
 mtz_13_6:
  + 1 U13 - 1 U6 + 14 X_13_6
  <= 13
 mtz_13_7:
  + 1 U13 - 1 U7 + 14 X_13_7
  <= 13
 mtz_13_8:
  + 1 U13 - 1 U8 + 14 X_13_8
  <= 13
 mtz_13_9:
  + 1 U13 - 1 U9 + 14 X_13_9
  <= 13
 mtz_13_10:
  + 1 U13 - 1 U10 + 14 X_13_10
  <= 13
 mtz_13_11:
  + 1 U13 - 1 U11 + 14 X_13_11
  <= 13
 mtz_13_12:
  + 1 U13 - 1 U12 + 14 X_13_12
  <= 13
 mtz_13_14:
  + 1 U13 - 1 U14 + 14 X_13_14
  <= 13
 mtz_14_1:
  + 1 U14 - 1 U1 + 14 X_14_1
  <= 13
 mtz_14_2:
  + 1 U14 - 1 U2 + 14 X_14_2
  <= 13
 mtz_14_3:
  + 1 U14 - 1 U3 + 14 X_14_3
  <= 13
 mtz_14_4:
  + 1 U14 - 1 U4 + 14 X_14_4
  <= 13
 mtz_14_5:
  + 1 U14 - 1 U5 + 14 X_14_5
  <= 13
 mtz_14_6:
  + 1 U14 - 1 U6 + 14 X_14_6
  <= 13
 mtz_14_7:
  + 1 U14 - 1 U7 + 14 X_14_7
  <= 13
 mtz_14_8:
  + 1 U14 - 1 U8 + 14 X_14_8
  <= 13
 mtz_14_9:
  + 1 U14 - 1 U9 + 14 X_14_9
  <= 13
 mtz_14_10:
  + 1 U14 - 1 U10 + 14 X_14_10
  <= 13
 mtz_14_11:
  + 1 U14 - 1 U11 + 14 X_14_11
  <= 13
 mtz_14_12:
  + 1 U14 - 1 U12 + 14 X_14_12
  <= 13
 mtz_14_13:
  + 1 U14 - 1 U13 + 14 X_14_13
  <= 13
 obj1:
  + 1134 X_0_1 + 546 X_0_2 + 773 X_0_3 + 713 X_0_4 + 970 X_0_5 + 651 X_0_6 + 423 X_0_7 + 902 X_0_8
  + 739 X_0_9 + 887 X_0_10 + 1236 X_0_11 + 839 X_0_12 + 984 X_0_13 + 73 X_0_14 + 1134 X_1_0 + 733 X_1_2
  + 361 X_1_3 + 565 X_1_4 + 218 X_1_5 + 700 X_1_6 + 863 X_1_7 + 693 X_1_8 + 441 X_1_9 + 714 X_1_10
  + 108 X_1_11 + 294 X_1_12 + 349 X_1_13 + 1076 X_1_14 + 546 X_2_0 + 733 X_2_1 + 416 X_2_3 + 614 X_2_4
  + 524 X_2_5 + 663 X_2_6 + 589 X_2_7 + 880 X_2_8 + 520 X_2_9 + 880 X_2_10 + 841 X_2_11 + 474 X_2_12
  + 754 X_2_13 + 473 X_2_14 + 773 X_3_0 + 361 X_3_1 + 416 X_3_2 + 332 X_3_4 + 221 X_3_5 + 449 X_3_6
  + 543 X_3_7 + 571 X_3_8 + 182 X_3_9 + 580 X_3_10 + 465 X_3_11 + 67 X_3_12 + 349 X_3_13 + 715 X_3_14
  + 713 X_4_0 + 565 X_4_1 + 614 X_4_2 + 332 X_4_3 + 526 X_4_5 + 134 X_4_6 + 333 X_4_7 + 266 X_4_8
  + 152 X_4_9 + 268 X_4_10 + 639 X_4_11 + 352 X_4_12 + 289 X_4_13 + 681 X_4_14 + 970 X_5_0 + 218 X_5_1
  + 524 X_5_2 + 221 X_5_3 + 526 X_5_4 + 654 X_5_6 + 764 X_5_7 + 727 X_5_8 + 376 X_5_9 + 742 X_5_10
  + 322 X_5_11 + 176 X_5_12 + 424 X_5_13 + 907 X_5_14 + 651 X_6_0 + 700 X_6_1 + 663 X_6_2 + 449 X_6_3
  + 134 X_6_4 + 654 X_6_5 + 237 X_6_7 + 255 X_6_8 + 278 X_6_9 + 243 X_6_10 + 772 X_6_11 + 478 X_6_12
  + 409 X_6_13 + 632 X_6_14 + 423 X_7_0 + 863 X_7_1 + 589 X_7_2 + 543 X_7_3 + 333 X_7_4 + 764 X_7_5
  + 237 X_7_6 + 481 X_7_8 + 423 X_7_9 + 464 X_7_10 + 950 X_7_11 + 594 X_7_12 + 623 X_7_13 + 415 X_7_14
  + 902 X_8_0 + 693 X_8_1 + 880 X_8_2 + 571 X_8_3 + 266 X_8_4 + 727 X_8_5 + 255 X_8_6 + 481 X_8_7
  + 393 X_8_9 + 25 X_8_10 + 733 X_8_11 + 570 X_8_12 + 345 X_8_13 + 886 X_8_14 + 739 X_9_0 + 441 X_9_1
  + 520 X_9_2 + 182 X_9_3 + 152 X_9_4 + 376 X_9_5 + 278 X_9_6 + 423 X_9_7 + 393 X_9_8 + 401 X_9_10
  + 527 X_9_11 + 201 X_9_12 + 254 X_9_13 + 694 X_9_14 + 887 X_10_0 + 714 X_10_1 + 880 X_10_2 + 580 X_10_3
  + 268 X_10_4 + 742 X_10_5 + 243 X_10_6 + 464 X_10_7 + 25 X_10_8 + 401 X_10_9 + 756 X_10_11 + 583 X_10_12
  + 366 X_10_13 + 872 X_10_14 + 1236 X_11_0 + 108 X_11_1 + 841 X_11_2 + 465 X_11_3 + 639 X_11_4 + 322 X_11_5
  + 772 X_11_6 + 950 X_11_7 + 733 X_11_8 + 527 X_11_9 + 756 X_11_10 + 398 X_11_12 + 390 X_11_13 + 1180 X_11_14
  + 839 X_12_0 + 294 X_12_1 + 474 X_12_2 + 67 X_12_3 + 352 X_12_4 + 176 X_12_5 + 478 X_12_6 + 594 X_12_7
  + 570 X_12_8 + 201 X_12_9 + 583 X_12_10 + 398 X_12_11 + 312 X_12_13 + 782 X_12_14 + 984 X_13_0 + 349 X_13_1
  + 754 X_13_2 + 349 X_13_3 + 289 X_13_4 + 424 X_13_5 + 409 X_13_6 + 623 X_13_7 + 345 X_13_8 + 254 X_13_9
  + 366 X_13_10 + 390 X_13_11 + 312 X_13_12 + 943 X_13_14 + 73 X_14_0 + 1076 X_14_1 + 473 X_14_2 + 715 X_14_3
  + 681 X_14_4 + 907 X_14_5 + 632 X_14_6 + 415 X_14_7 + 886 X_14_8 + 694 X_14_9 + 872 X_14_10 + 1180 X_14_11
  + 782 X_14_12 + 943 X_14_13
  <= 1
 obj2:
  + 157 X_0_1 + 712 X_0_2 + 698 X_0_3 + 754 X_0_4 + 662 X_0_5 + 72 X_0_6 + 658 X_0_7 + 212 X_0_8
  + 727 X_0_9 + 160 X_0_10 + 241 X_0_11 + 392 X_0_12 + 825 X_0_13 + 757 X_0_14 + 157 X_1_0 + 664 X_1_2
  + 787 X_1_3 + 820 X_1_4 + 625 X_1_5 + 168 X_1_6 + 508 X_1_7 + 351 X_1_8 + 714 X_1_9 + 312 X_1_10
  + 335 X_1_11 + 428 X_1_12 + 717 X_1_13 + 688 X_1_14 + 712 X_2_0 + 664 X_2_1 + 632 X_2_3 + 545 X_2_4
  + 68 X_2_5 + 777 X_2_6 + 587 X_2_7 + 693 X_2_8 + 166 X_2_9 + 737 X_2_10 + 574 X_2_11 + 401 X_2_12
  + 327 X_2_13 + 101 X_2_14 + 698 X_3_0 + 787 X_3_1 + 632 X_3_2 + 135 X_3_4 + 569 X_3_5 + 764 X_3_6
  + 1067 X_3_7 + 509 X_3_8 + 488 X_3_9 + 583 X_3_10 + 459 X_3_11 + 390 X_3_12 + 947 X_3_13 + 733 X_3_14
  + 754 X_4_0 + 820 X_4_1 + 545 X_4_2 + 135 X_4_3 + 488 X_4_5 + 824 X_4_6 + 1035 X_4_7 + 586 X_4_8
  + 388 X_4_9 + 660 X_4_10 + 513 X_4_11 + 396 X_4_12 + 869 X_4_13 + 646 X_4_14 + 662 X_5_0 + 625 X_5_1
  + 68 X_5_2 + 569 X_5_3 + 488 X_5_4 + 729 X_5_6 + 603 X_5_7 + 631 X_5_8 + 130 X_5_9 + 677 X_5_10
  + 512 X_5_11 + 336 X_5_12 + 381 X_5_13 + 165 X_5_14 + 72 X_6_0 + 168 X_6_1 + 777 X_6_2 + 764 X_6_3
  + 824 X_6_4 + 729 X_6_5 + 676 X_6_7 + 267 X_6_8 + 797 X_6_9 + 202 X_6_10 + 311 X_6_11 + 464 X_6_12
  + 872 X_6_13 + 817 X_6_14 + 658 X_7_0 + 508 X_7_1 + 587 X_7_2 + 1067 X_7_3 + 1035 X_7_4 + 603 X_7_5
  + 676 X_7_6 + 804 X_7_8 + 734 X_7_9 + 792 X_7_10 + 728 X_7_11 + 686 X_7_12 + 387 X_7_13 + 531 X_7_14
  + 212 X_8_0 + 351 X_8_1 + 693 X_8_2 + 509 X_8_3 + 586 X_8_4 + 631 X_8_5 + 267 X_8_6 + 804 X_8_7
  + 658 X_8_9 + 74 X_8_10 + 119 X_8_11 + 301 X_8_12 + 885 X_8_13 + 762 X_8_14 + 727 X_9_0 + 714 X_9_1
  + 166 X_9_2 + 488 X_9_3 + 388 X_9_4 + 130 X_9_5 + 797 X_9_6 + 734 X_9_7 + 658 X_9_8 + 715 X_9_10
  + 542 X_9_11 + 357 X_9_12 + 493 X_9_13 + 263 X_9_14 + 160 X_10_0 + 312 X_10_1 + 737 X_10_2 + 583 X_10_3
  + 660 X_10_4 + 677 X_10_5 + 202 X_10_6 + 792 X_10_7 + 74 X_10_8 + 715 X_10_9 + 173 X_10_11 + 358 X_10_12
  + 906 X_10_13 + 799 X_10_14 + 241 X_11_0 + 335 X_11_1 + 574 X_11_2 + 459 X_11_3 + 513 X_11_4 + 512 X_11_5
  + 311 X_11_6 + 728 X_11_7 + 119 X_11_8 + 542 X_11_9 + 173 X_11_10 + 185 X_11_12 + 775 X_11_13 + 644 X_11_14
  + 392 X_12_0 + 428 X_12_1 + 401 X_12_2 + 390 X_12_3 + 396 X_12_4 + 336 X_12_5 + 464 X_12_6 + 686 X_12_7
  + 301 X_12_8 + 357 X_12_9 + 358 X_12_10 + 185 X_12_11 + 644 X_12_13 + 482 X_12_14 + 825 X_13_0 + 717 X_13_1
  + 327 X_13_2 + 947 X_13_3 + 869 X_13_4 + 381 X_13_5 + 872 X_13_6 + 387 X_13_7 + 885 X_13_8 + 493 X_13_9
  + 906 X_13_10 + 775 X_13_11 + 644 X_13_12 + 230 X_13_14 + 757 X_14_0 + 688 X_14_1 + 101 X_14_2 + 733 X_14_3
  + 646 X_14_4 + 165 X_14_5 + 817 X_14_6 + 531 X_14_7 + 762 X_14_8 + 263 X_14_9 + 799 X_14_10 + 644 X_14_11
  + 482 X_14_12 + 230 X_14_13
  <= 2
 obj3:
  + 764 X_0_1 + 639 X_0_2 + 217 X_0_3 + 365 X_0_4 + 250 X_0_5 + 486 X_0_6 + 131 X_0_7 + 269 X_0_8
  + 782 X_0_9 + 568 X_0_10 + 386 X_0_11 + 201 X_0_12 + 393 X_0_13 + 614 X_0_14 + 764 X_1_0 + 472 X_1_2
  + 576 X_1_3 + 831 X_1_4 + 675 X_1_5 + 717 X_1_6 + 799 X_1_7 + 1005 X_1_8 + 459 X_1_9 + 710 X_1_10
  + 1076 X_1_11 + 763 X_1_12 + 797 X_1_13 + 197 X_1_14 + 639 X_2_0 + 472 X_2_1 + 578 X_2_3 + 486 X_2_4
  + 718 X_2_5 + 306 X_2_6 + 591 X_2_7 + 778 X_2_8 + 149 X_2_9 + 264 X_2_10 + 791 X_2_11 + 761 X_2_12
  + 436 X_2_13 + 295 X_2_14 + 217 X_3_0 + 576 X_3_1 + 578 X_3_2 + 494 X_3_4 + 140 X_3_5 + 539 X_3_6
  + 314 X_3_7 + 486 X_3_8 + 702 X_3_9 + 604 X_3_10 + 597 X_3_11 + 197 X_3_12 + 500 X_3_13 + 460 X_3_14
  + 365 X_4_0 + 831 X_4_1 + 486 X_4_2 + 494 X_4_3 + 592 X_4_5 + 198 X_4_6 + 240 X_4_7 + 337 X_4_8
  + 631 X_4_9 + 282 X_4_10 + 311 X_4_11 + 565 X_4_12 + 54 X_4_13 + 637 X_4_14 + 250 X_5_0 + 675 X_5_1
  + 718 X_5_2 + 140 X_5_3 + 592 X_5_4 + 664 X_5_6 + 377 X_5_7 + 503 X_5_8 + 840 X_5_9 + 734 X_5_10
  + 630 X_5_11 + 99 X_5_12 + 607 X_5_13 + 583 X_5_14 + 486 X_6_0 + 717 X_6_1 + 306 X_6_2 + 539 X_6_3
  + 198 X_6_4 + 664 X_6_5 + 387 X_6_7 + 529 X_6_8 + 444 X_6_9 + 87 X_6_10 + 509 X_6_11 + 665 X_6_12
  + 144 X_6_13 + 519 X_6_14 + 131 X_7_0 + 799 X_7_1 + 591 X_7_2 + 314 X_7_3 + 240 X_7_4 + 377 X_7_5
  + 387 X_7_6 + 206 X_7_8 + 740 X_7_9 + 473 X_7_10 + 288 X_7_11 + 332 X_7_12 + 274 X_7_13 + 629 X_7_14
  + 269 X_8_0 + 1005 X_8_1 + 778 X_8_2 + 486 X_8_3 + 337 X_8_4 + 503 X_8_5 + 529 X_8_6 + 206 X_8_7
  + 928 X_8_9 + 616 X_8_10 + 138 X_8_11 + 425 X_8_12 + 389 X_8_13 + 835 X_8_14 + 782 X_9_0 + 459 X_9_1
  + 149 X_9_2 + 702 X_9_3 + 631 X_9_4 + 840 X_9_5 + 444 X_9_6 + 740 X_9_7 + 928 X_9_8 + 386 X_9_10
  + 939 X_9_11 + 891 X_9_12 + 580 X_9_13 + 330 X_9_14 + 568 X_10_0 + 710 X_10_1 + 264 X_10_2 + 604 X_10_3
  + 282 X_10_4 + 734 X_10_5 + 87 X_10_6 + 473 X_10_7 + 616 X_10_8 + 386 X_10_9 + 590 X_10_11 + 742 X_10_12
  + 228 X_10_13 + 516 X_10_14 + 386 X_11_0 + 1076 X_11_1 + 791 X_11_2 + 597 X_11_3 + 311 X_11_4 + 630 X_11_5
  + 509 X_11_6 + 288 X_11_7 + 138 X_11_8 + 939 X_11_9 + 590 X_11_10 + 558 X_11_12 + 365 X_11_13 + 894 X_11_14
  + 201 X_12_0 + 763 X_12_1 + 761 X_12_2 + 197 X_12_3 + 565 X_12_4 + 99 X_12_5 + 665 X_12_6 + 332 X_12_7
  + 425 X_12_8 + 891 X_12_9 + 742 X_12_10 + 558 X_12_11 + 588 X_12_13 + 657 X_12_14 + 393 X_13_0 + 797 X_13_1
  + 436 X_13_2 + 500 X_13_3 + 54 X_13_4 + 607 X_13_5 + 144 X_13_6 + 274 X_13_7 + 389 X_13_8 + 580 X_13_9
  + 228 X_13_10 + 365 X_13_11 + 588 X_13_12 + 601 X_13_14 + 614 X_14_0 + 197 X_14_1 + 295 X_14_2 + 460 X_14_3
  + 637 X_14_4 + 583 X_14_5 + 519 X_14_6 + 629 X_14_7 + 835 X_14_8 + 330 X_14_9 + 516 X_14_10 + 894 X_14_11
  + 657 X_14_12 + 601 X_14_13
  <= 3
 obj4:
  + 342 X_0_1 + 527 X_0_2 + 281 X_0_3 + 255 X_0_4 + 388 X_0_5 + 879 X_0_6 + 357 X_0_7 + 931 X_0_8
  + 247 X_0_9 + 254 X_0_10 + 632 X_0_11 + 647 X_0_12 + 676 X_0_13 + 670 X_0_14 + 342 X_1_0 + 255 X_1_2
  + 570 X_1_3 + 564 X_1_4 + 590 X_1_5 + 826 X_1_6 + 686 X_1_7 + 800 X_1_8 + 362 X_1_9 + 253 X_1_10
  + 717 X_1_11 + 538 X_1_12 + 875 X_1_13 + 428 X_1_14 + 527 X_2_0 + 255 X_2_1 + 668 X_2_3 + 681 X_2_4
  + 618 X_2_5 + 635 X_2_6 + 814 X_2_7 + 569 X_2_8 + 413 X_2_9 + 310 X_2_10 + 634 X_2_11 + 345 X_2_12
  + 858 X_2_13 + 173 X_2_14 + 281 X_3_0 + 570 X_3_1 + 668 X_3_2 + 50 X_3_4 + 174 X_3_5 + 788 X_3_6
  + 158 X_3_7 + 898 X_3_8 + 258 X_3_9 + 360 X_3_10 + 464 X_3_11 + 637 X_3_12 + 417 X_3_13 + 763 X_3_14
  + 255 X_4_0 + 564 X_4_1 + 681 X_4_2 + 50 X_4_3 + 224 X_4_5 + 833 X_4_6 + 132 X_4_7 + 938 X_4_8
  + 278 X_4_9 + 371 X_4_10 + 513 X_4_11 + 673 X_4_12 + 463 X_4_13 + 785 X_4_14 + 388 X_5_0 + 590 X_5_1
  + 618 X_5_2 + 174 X_5_3 + 224 X_5_4 + 621 X_5_6 + 313 X_5_7 + 745 X_5_8 + 228 X_5_9 + 342 X_5_10
  + 289 X_5_11 + 505 X_5_12 + 294 X_5_13 + 676 X_5_14 + 879 X_6_0 + 826 X_6_1 + 635 X_6_2 + 788 X_6_3
  + 833 X_6_4 + 621 X_6_5 + 934 X_6_7 + 202 X_6_8 + 632 X_6_9 + 651 X_6_10 + 357 X_6_11 + 292 X_6_12
  + 618 X_6_13 + 521 X_6_14 + 357 X_7_0 + 686 X_7_1 + 814 X_7_2 + 158 X_7_3 + 132 X_7_4 + 313 X_7_5
  + 934 X_7_6 + 1052 X_7_8 + 410 X_7_9 + 503 X_7_10 + 595 X_7_11 + 795 X_7_12 + 480 X_7_13 + 917 X_7_14
  + 931 X_8_0 + 800 X_8_1 + 569 X_8_2 + 898 X_8_3 + 938 X_8_4 + 745 X_8_5 + 202 X_8_6 + 1052 X_8_7
  + 697 X_8_9 + 681 X_8_10 + 521 X_8_11 + 284 X_8_12 + 798 X_8_13 + 417 X_8_14 + 247 X_9_0 + 362 X_9_1
  + 413 X_9_2 + 258 X_9_3 + 278 X_9_4 + 228 X_9_5 + 632 X_9_6 + 410 X_9_7 + 697 X_9_8 + 114 X_9_10
  + 399 X_9_11 + 417 X_9_12 + 513 X_9_13 + 507 X_9_14 + 254 X_10_0 + 253 X_10_1 + 310 X_10_2 + 360 X_10_3
  + 371 X_10_4 + 342 X_10_5 + 651 X_10_6 + 503 X_10_7 + 681 X_10_8 + 114 X_10_9 + 475 X_10_11 + 397 X_10_12
  + 621 X_10_13 + 427 X_10_14 + 632 X_11_0 + 717 X_11_1 + 634 X_11_2 + 464 X_11_3 + 513 X_11_4 + 289 X_11_5
  + 357 X_11_6 + 595 X_11_7 + 521 X_11_8 + 399 X_11_9 + 475 X_11_10 + 367 X_11_12 + 281 X_11_13 + 614 X_11_14
  + 647 X_12_0 + 538 X_12_1 + 345 X_12_2 + 637 X_12_3 + 673 X_12_4 + 505 X_12_5 + 292 X_12_6 + 795 X_12_7
  + 284 X_12_8 + 417 X_12_9 + 397 X_12_10 + 367 X_12_11 + 641 X_12_13 + 261 X_12_14 + 676 X_13_0 + 875 X_13_1
  + 858 X_13_2 + 417 X_13_3 + 463 X_13_4 + 294 X_13_5 + 618 X_13_6 + 480 X_13_7 + 798 X_13_8 + 513 X_13_9
  + 621 X_13_10 + 281 X_13_11 + 641 X_13_12 + 872 X_13_14 + 670 X_14_0 + 428 X_14_1 + 173 X_14_2 + 763 X_14_3
  + 785 X_14_4 + 676 X_14_5 + 521 X_14_6 + 917 X_14_7 + 417 X_14_8 + 507 X_14_9 + 427 X_14_10 + 614 X_14_11
  + 261 X_14_12 + 872 X_14_13
  <= 4
 obj5:
  + 352 X_0_1 + 399 X_0_2 + 315 X_0_3 + 304 X_0_4 + 285 X_0_5 + 715 X_0_6 + 465 X_0_7 + 634 X_0_8
  + 698 X_0_9 + 574 X_0_10 + 193 X_0_11 + 794 X_0_12 + 642 X_0_13 + 133 X_0_14 + 352 X_1_0 + 115 X_1_2
  + 91 X_1_3 + 375 X_1_4 + 224 X_1_5 + 474 X_1_6 + 194 X_1_7 + 426 X_1_8 + 418 X_1_9 + 435 X_1_10
  + 453 X_1_11 + 518 X_1_12 + 331 X_1_13 + 459 X_1_14 + 399 X_2_0 + 115 X_2_1 + 205 X_2_3 + 325 X_2_4
  + 334 X_2_5 + 363 X_2_6 + 81 X_2_7 + 526 X_2_8 + 316 X_2_9 + 323 X_2_10 + 534 X_2_11 + 416 X_2_12
  + 393 X_2_13 + 522 X_2_14 + 315 X_3_0 + 91 X_3_1 + 205 X_3_2 + 414 X_3_4 + 133 X_3_5 + 566 X_3_6
  + 285 X_3_7 + 373 X_3_8 + 509 X_3_9 + 518 X_3_10 + 383 X_3_11 + 609 X_3_12 + 329 X_3_13 + 404 X_3_14
  + 304 X_4_0 + 375 X_4_1 + 325 X_4_2 + 414 X_4_3 + 479 X_4_5 + 493 X_4_6 + 339 X_4_7 + 787 X_4_8
  + 513 X_4_9 + 306 X_4_10 + 497 X_4_11 + 591 X_4_12 + 704 X_4_13 + 427 X_4_14 + 285 X_5_0 + 224 X_5_1
  + 334 X_5_2 + 133 X_5_3 + 479 X_5_4 + 697 X_5_6 + 416 X_5_7 + 349 X_5_8 + 642 X_5_9 + 635 X_5_10
  + 283 X_5_11 + 742 X_5_12 + 387 X_5_13 + 331 X_5_14 + 715 X_6_0 + 474 X_6_1 + 363 X_6_2 + 566 X_6_3
  + 493 X_6_4 + 697 X_6_5 + 281 X_6_7 + 824 X_6_8 + 99 X_6_9 + 209 X_6_10 + 880 X_6_11 + 107 X_6_12
  + 628 X_6_13 + 848 X_6_14 + 465 X_7_0 + 194 X_7_1 + 81 X_7_2 + 285 X_7_3 + 339 X_7_4 + 416 X_7_5
  + 281 X_7_6 + 585 X_7_8 + 237 X_7_9 + 262 X_7_10 + 611 X_7_11 + 337 X_7_12 + 429 X_7_13 + 592 X_7_14
  + 634 X_8_0 + 426 X_8_1 + 526 X_8_2 + 373 X_8_3 + 787 X_8_4 + 349 X_8_5 + 824 X_8_6 + 585 X_8_7
  + 737 X_8_9 + 846 X_8_10 + 594 X_8_11 + 823 X_8_12 + 223 X_8_13 + 666 X_8_14 + 698 X_9_0 + 418 X_9_1
  + 316 X_9_2 + 509 X_9_3 + 513 X_9_4 + 642 X_9_5 + 99 X_9_6 + 237 X_9_7 + 737 X_9_8 + 269 X_9_10
  + 848 X_9_11 + 100 X_9_12 + 535 X_9_13 + 827 X_9_14 + 574 X_10_0 + 435 X_10_1 + 323 X_10_2 + 518 X_10_3
  + 306 X_10_4 + 635 X_10_5 + 209 X_10_6 + 262 X_10_7 + 846 X_10_8 + 269 X_10_9 + 757 X_10_11 + 316 X_10_12
  + 688 X_10_13 + 707 X_10_14 + 193 X_11_0 + 453 X_11_1 + 534 X_11_2 + 383 X_11_3 + 497 X_11_4 + 283 X_11_5
  + 880 X_11_6 + 611 X_11_7 + 594 X_11_8 + 848 X_11_9 + 757 X_11_10 + 948 X_11_12 + 669 X_11_13 + 99 X_11_14
  + 794 X_12_0 + 518 X_12_1 + 416 X_12_2 + 609 X_12_3 + 591 X_12_4 + 742 X_12_5 + 107 X_12_6 + 337 X_12_7
  + 823 X_12_8 + 100 X_12_9 + 316 X_12_10 + 948 X_12_11 + 613 X_12_13 + 924 X_12_14 + 642 X_13_0 + 331 X_13_1
  + 393 X_13_2 + 329 X_13_3 + 704 X_13_4 + 387 X_13_5 + 628 X_13_6 + 429 X_13_7 + 223 X_13_8 + 535 X_13_9
  + 688 X_13_10 + 669 X_13_11 + 613 X_13_12 + 715 X_13_14 + 133 X_14_0 + 459 X_14_1 + 522 X_14_2 + 404 X_14_3
  + 427 X_14_4 + 331 X_14_5 + 848 X_14_6 + 592 X_14_7 + 666 X_14_8 + 827 X_14_9 + 707 X_14_10 + 99 X_14_11
  + 924 X_14_12 + 715 X_14_13
  <= 5
 obj6:
  + 444 X_0_1 + 436 X_0_2 + 831 X_0_3 + 949 X_0_4 + 475 X_0_5 + 368 X_0_6 + 74 X_0_7 + 316 X_0_8
  + 299 X_0_9 + 329 X_0_10 + 653 X_0_11 + 422 X_0_12 + 273 X_0_13 + 395 X_0_14 + 444 X_1_0 + 811 X_1_2
  + 856 X_1_3 + 856 X_1_4 + 415 X_1_5 + 81 X_1_6 + 459 X_1_7 + 535 X_1_8 + 743 X_1_9 + 178 X_1_10
  + 843 X_1_11 + 800 X_1_12 + 450 X_1_13 + 492 X_1_14 + 436 X_2_0 + 811 X_2_1 + 693 X_2_3 + 899 X_2_4
  + 592 X_2_5 + 730 X_2_6 + 379 X_2_7 + 318 X_2_8 + 304 X_2_9 + 748 X_2_10 + 393 X_2_11 + 15 X_2_12
  + 689 X_2_13 + 436 X_2_14 + 831 X_3_0 + 856 X_3_1 + 693 X_3_2 + 239 X_3_4 + 444 X_3_5 + 809 X_3_6
  + 761 X_3_7 + 521 X_3_8 + 934 X_3_9 + 938 X_3_10 + 319 X_3_11 + 699 X_3_12 + 1079 X_3_13 + 440 X_3_14
  + 949 X_4_0 + 856 X_4_1 + 899 X_4_2 + 239 X_4_3 + 490 X_4_5 + 829 X_4_6 + 887 X_4_7 + 669 X_4_8
  + 1106 X_4_9 + 977 X_4_10 + 550 X_4_11 + 902 X_4_12 + 1166 X_4_13 + 558 X_4_14 + 475 X_5_0 + 415 X_5_1
  + 592 X_5_2 + 444 X_5_3 + 490 X_5_4 + 365 X_5_6 + 424 X_5_7 + 277 X_5_8 + 692 X_5_9 + 499 X_5_10
  + 463 X_5_11 + 587 X_5_12 + 676 X_5_13 + 156 X_5_14 + 368 X_6_0 + 81 X_6_1 + 730 X_6_2 + 809 X_6_3
  + 829 X_6_4 + 365 X_6_5 + 379 X_6_7 + 457 X_6_8 + 666 X_6_9 + 154 X_6_10 + 774 X_6_11 + 719 X_6_12
  + 409 X_6_13 + 423 X_6_14 + 74 X_7_0 + 459 X_7_1 + 379 X_7_2 + 761 X_7_3 + 887 X_7_4 + 424 X_7_5
  + 379 X_7_6 + 243 X_7_8 + 297 X_7_9 + 370 X_7_10 + 579 X_7_11 + 366 X_7_12 + 346 X_7_13 + 330 X_7_14
  + 316 X_8_0 + 535 X_8_1 + 318 X_8_2 + 521 X_8_3 + 669 X_8_4 + 277 X_8_5 + 457 X_8_6 + 243 X_8_7
  + 439 X_8_9 + 524 X_8_10 + 347 X_8_11 + 312 X_8_12 + 582 X_8_13 + 127 X_8_14 + 299 X_9_0 + 743 X_9_1
  + 304 X_9_2 + 934 X_9_3 + 1106 X_9_4 + 692 X_9_5 + 666 X_9_6 + 297 X_9_7 + 439 X_9_8 + 620 X_9_10
  + 670 X_9_11 + 291 X_9_12 + 462 X_9_13 + 562 X_9_14 + 329 X_10_0 + 178 X_10_1 + 748 X_10_2 + 938 X_10_3
  + 977 X_10_4 + 499 X_10_5 + 154 X_10_6 + 370 X_10_7 + 524 X_10_8 + 620 X_10_9 + 864 X_10_11 + 735 X_10_12
  + 273 X_10_13 + 524 X_10_14 + 653 X_11_0 + 843 X_11_1 + 393 X_11_2 + 319 X_11_3 + 550 X_11_4 + 463 X_11_5
  + 774 X_11_6 + 579 X_11_7 + 347 X_11_8 + 670 X_11_9 + 864 X_11_10 + 401 X_11_12 + 924 X_11_13 + 351 X_11_14
  + 422 X_12_0 + 800 X_12_1 + 15 X_12_2 + 699 X_12_3 + 902 X_12_4 + 587 X_12_5 + 719 X_12_6 + 366 X_12_7
  + 312 X_12_8 + 291 X_12_9 + 735 X_12_10 + 401 X_12_11 + 674 X_12_13 + 431 X_12_14 + 273 X_13_0 + 450 X_13_1
  + 689 X_13_2 + 1079 X_13_3 + 1166 X_13_4 + 676 X_13_5 + 409 X_13_6 + 346 X_13_7 + 582 X_13_8 + 462 X_13_9
  + 273 X_13_10 + 924 X_13_11 + 674 X_13_12 + 639 X_13_14 + 395 X_14_0 + 492 X_14_1 + 436 X_14_2 + 440 X_14_3
  + 558 X_14_4 + 156 X_14_5 + 423 X_14_6 + 330 X_14_7 + 127 X_14_8 + 562 X_14_9 + 524 X_14_10 + 351 X_14_11
  + 431 X_14_12 + 639 X_14_13
  <= 6
Bounds
 1 <= U1 <= 14
 1 <= U2 <= 14
 1 <= U3 <= 14
 1 <= U4 <= 14
 1 <= U5 <= 14
 1 <= U6 <= 14
 1 <= U7 <= 14
 1 <= U8 <= 14
 1 <= U9 <= 14
 1 <= U10 <= 14
 1 <= U11 <= 14
 1 <= U12 <= 14
 1 <= U13 <= 14
 1 <= U14 <= 14
Binary
 X_0_1
 X_0_2
 X_0_3
 X_0_4
 X_0_5
 X_0_6
 X_0_7
 X_0_8
 X_0_9
 X_0_10
 X_0_11
 X_0_12
 X_0_13
 X_0_14
 X_1_0
 X_1_2
 X_1_3
 X_1_4
 X_1_5
 X_1_6
 X_1_7
 X_1_8
 X_1_9
 X_1_10
 X_1_11
 X_1_12
 X_1_13
 X_1_14
 X_2_0
 X_2_1
 X_2_3
 X_2_4
 X_2_5
 X_2_6
 X_2_7
 X_2_8
 X_2_9
 X_2_10
 X_2_11
 X_2_12
 X_2_13
 X_2_14
 X_3_0
 X_3_1
 X_3_2
 X_3_4
 X_3_5
 X_3_6
 X_3_7
 X_3_8
 X_3_9
 X_3_10
 X_3_11
 X_3_12
 X_3_13
 X_3_14
 X_4_0
 X_4_1
 X_4_2
 X_4_3
 X_4_5
 X_4_6
 X_4_7
 X_4_8
 X_4_9
 X_4_10
 X_4_11
 X_4_12
 X_4_13
 X_4_14
 X_5_0
 X_5_1
 X_5_2
 X_5_3
 X_5_4
 X_5_6
 X_5_7
 X_5_8
 X_5_9
 X_5_10
 X_5_11
 X_5_12
 X_5_13
 X_5_14
 X_6_0
 X_6_1
 X_6_2
 X_6_3
 X_6_4
 X_6_5
 X_6_7
 X_6_8
 X_6_9
 X_6_10
 X_6_11
 X_6_12
 X_6_13
 X_6_14
 X_7_0
 X_7_1
 X_7_2
 X_7_3
 X_7_4
 X_7_5
 X_7_6
 X_7_8
 X_7_9
 X_7_10
 X_7_11
 X_7_12
 X_7_13
 X_7_14
 X_8_0
 X_8_1
 X_8_2
 X_8_3
 X_8_4
 X_8_5
 X_8_6
 X_8_7
 X_8_9
 X_8_10
 X_8_11
 X_8_12
 X_8_13
 X_8_14
 X_9_0
 X_9_1
 X_9_2
 X_9_3
 X_9_4
 X_9_5
 X_9_6
 X_9_7
 X_9_8
 X_9_10
 X_9_11
 X_9_12
 X_9_13
 X_9_14
 X_10_0
 X_10_1
 X_10_2
 X_10_3
 X_10_4
 X_10_5
 X_10_6
 X_10_7
 X_10_8
 X_10_9
 X_10_11
 X_10_12
 X_10_13
 X_10_14
 X_11_0
 X_11_1
 X_11_2
 X_11_3
 X_11_4
 X_11_5
 X_11_6
 X_11_7
 X_11_8
 X_11_9
 X_11_10
 X_11_12
 X_11_13
 X_11_14
 X_12_0
 X_12_1
 X_12_2
 X_12_3
 X_12_4
 X_12_5
 X_12_6
 X_12_7
 X_12_8
 X_12_9
 X_12_10
 X_12_11
 X_12_13
 X_12_14
 X_13_0
 X_13_1
 X_13_2
 X_13_3
 X_13_4
 X_13_5
 X_13_6
 X_13_7
 X_13_8
 X_13_9
 X_13_10
 X_13_11
 X_13_12
 X_13_14
 X_14_0
 X_14_1
 X_14_2
 X_14_3
 X_14_4
 X_14_5
 X_14_6
 X_14_7
 X_14_8
 X_14_9
 X_14_10
 X_14_11
 X_14_12
 X_14_13
End
